; file: D:\Entwicklung\workspace\alloy2relsmt\smtexamples\reduced_dijkstra_buggy.als 
; hash: 2EF948AFE3EEEE8E 4A1EAF42F2AC7D5
(set-logic AUFLIA)
(set-option :macro-finder true)
;; sorts
(declare-sort Atom)
(declare-sort Rel1)
(declare-sort Rel2)
(declare-sort Rel3)
;; --end sorts

;; functions
(declare-fun Deadlock () Bool)
(declare-fun GrabbedInOrder () Bool)
(declare-fun Mutex () Rel1)
(declare-fun Process () Rel1)
(declare-fun State () Rel1)
(declare-fun a2r_1 (Atom) Rel1)
(declare-fun disjoint_1 (Rel1 Rel1) Bool)
(declare-fun in_1 (Atom Rel1) Bool)
(declare-fun in_2 (Atom Atom Rel2) Bool)
(declare-fun in_3 (Atom Atom Atom Rel3) Bool)
(declare-fun join_1x2 (Rel1 Rel2) Rel1)
(declare-fun join_1x3 (Rel1 Rel3) Rel2)
(declare-fun none () Rel1)
(declare-fun one_1 (Rel1) Bool)
(declare-fun prod_1x1 (Rel1 Rel1) Rel2)
(declare-fun prod_2x1 (Rel2 Rel1) Rel3)
(declare-fun some_1 (Rel1) Bool)
(declare-fun subset_2 (Rel2 Rel2) Bool)
(declare-fun subset_3 (Rel3 Rel3) Bool)
(declare-fun waits () Rel3)
;; --end functions

;; axioms
(assert 
 (! 
  (forall ((X Rel1)) (= (one_1 X) (and (exists ((a0 Atom)) (in_1 a0 X)) (forall ((a0 Atom)(b0 Atom)) (=> (and (in_1 a0 X) (in_1 b0 X)) (= a0 b0)))))) 
 :named axiom12f951fb 
 ) 
 )
(assert 
 (! 
  (forall ((y0 Atom)(x0 Atom)(A Rel1)(B Rel1)) (= (in_2 x0 y0 (prod_1x1 A B)) (and (in_1 x0 A) (in_1 y0 B)))) 
 :named axiom19bef732 
 ) 
 )
(assert 
 (! 
  ; subset axiom for Rel2
(forall ((x Rel2)(y Rel2)) (= (subset_2 x y) (forall ((a0 Atom)(a1 Atom)) (=> (in_2 a0 a1 x) (in_2 a0 a1 y))))) 
 :named axiom225d0e51 
 ) 
 )
(assert 
 (! 
  ; (forall ((A Rel1)(B Rel1)) (= (disjoint_1 A B) (forall ((a0 Atom)) (=> (in_1 a0 A) (not (in_1 a0 B)))))); alternative
(forall ((A Rel1)(B Rel1)) (= (disjoint_1 A B) (forall ((a0 Atom)) (not (and (in_1 a0 A) (in_1 a0 B)))))) 
 :named axiom300ecb75 
 ) 
 )
(assert 
 (! 
  ; axiom for empty set
(forall ((a Atom)) (not (in_1 a none))) 
 :named axiom6cf65805 
 ) 
 )
(assert 
 (! 
  (forall ((y0 Atom)(x0 Atom)(x1 Atom)(A Rel2)(B Rel1)) (= (in_3 x0 x1 y0 (prod_2x1 A B)) (and (in_2 x0 x1 A) (in_1 y0 B)))) 
 :named axiom6f1bf92f 
 ) 
 )
(assert 
 (! 
  ; axiom for join_1x3
(forall ((A Rel1)(B Rel3)(y0 Atom)(y1 Atom)) (= (in_2 y0 y1 (join_1x3 A B)) (exists ((x Atom)) (and (in_1 x A) (in_3 x y0 y1 B))))) 
 :named axiom82f21aba 
 ) 
 )
(assert 
 (! 
  ; subset axiom for Rel3
(forall ((x Rel3)(y Rel3)) (= (subset_3 x y) (forall ((a0 Atom)(a1 Atom)(a2 Atom)) (=> (in_3 a0 a1 a2 x) (in_3 a0 a1 a2 y))))) 
 :named axiomb131cb24 
 ) 
 )
(assert 
 (! 
  ; axiom for join_1x2
(forall ((A Rel1)(B Rel2)(y0 Atom)) (= (in_1 y0 (join_1x2 A B)) (exists ((x Atom)) (and (in_1 x A) (in_2 x y0 B))))) 
 :named axiomc43ab575 
 ) 
 )
(assert 
 (! 
  (forall ((A Rel1)) (= (some_1 A) (exists ((a0 Atom)) (in_1 a0 A)))) 
 :named axiomdf19d42f 
 ) 
 )
(assert 
 (! 
  ; axiom for the conversion function Atom -> Relation
(forall ((x0 Atom)) (and (in_1 x0 (a2r_1 x0)) (forall ((y0 Atom)) (=> (in_1 y0 (a2r_1 x0)) (= x0 y0))))) 
 :named axiome566b6fc 
 ) 
 )
;; --end axioms

;; assertions
(assert 
 (! 
  (disjoint_1 Process State) 
 :named assert1e7c4693 
 ) 
 )
(assert 
 (! 
  (subset_3 waits (prod_2x1 (prod_1x1 State Process) Mutex)) 
 :named assert2bbe2d17 
 ) 
 )
(assert 
 (! 
  (= GrabbedInOrder true) 
 :named assert301b943a 
 ) 
 )
(assert 
 (! 
  (disjoint_1 Mutex Process) 
 :named assert90c0cf25 
 ) 
 )
(assert 
 (! 
  (disjoint_1 Mutex State) 
 :named assert9a005403 
 ) 
 )
(assert 
 (! 
  (= Deadlock (and (some_1 Process) (exists ((s Atom)) (and (in_1 s State) (forall ((p Atom)) (=> (in_1 p Process) (some_1 (join_1x2 (a2r_1 p) (join_1x3 (a2r_1 s) waits))))))))) 
 :named asserte800516c 
 ) 
 )
;; --end assertions

;; command
(assert 
 (! 
  (not (=> (and (some_1 Process) GrabbedInOrder) (not Deadlock))) 
 :named command674f335f 
 ) 
 )
;; --end command

;; lemmas
(assert
 (! 
  ; 2. lemma for join_1x2. direction: in to join
(forall ((a1 Atom)(a0 Atom)(r Rel2)) (=> (in_2 a1 a0 r) (in_1 a0 (join_1x2 ; (swapped)
(a2r_1 a1) r)))) 
 :named lemma6ec6a62 
 ) 
 )
(assert
 (! 
  ; 2. lemma for join_1x3. direction: in to join
(forall ((a2 Atom)(a1 Atom)(a0 Atom)(r Rel3)) (=> (in_3 a2 a1 a0 r) (in_2 a1 a0 (join_1x3 ; (swapped)
(a2r_1 a2) r)))) 
 :named lemma823ccdc0 
 ) 
 )
;; --end lemmas

;; -- key stuff for debugging --
;\problem {(
;
;)-> (
;
;;\predicates {

;;}

;; -- END key stuff --
(check-sat)
